coords = array2d(1..21, 1..2, [422, 94, 756, 122, 835, 445, 980, 109, 169, 550,
    357, 933, 993, 577, 997, 288, 20, 947, 257, 938, 70, 180, 500,
    840, 915, 550, 776, 761, 916, 841, 103, 299, 852, 770, 456, 405,
    363, 41, 442, 368, 56, 818]);

n = 21;

